jobs  (incl. supersource/sink ):	102
RESOURCES
- renewable                 : 4 R
- nonrenewable              : 4 N
- doubly constrained        : 0 D
************************************************************************
PRECEDENCE RELATIONS:
jobnr.    #modes  #successors   successors
1	1	8		2 3 4 5 6 7 9 10 
2	9	7		20 18 17 16 14 12 8 
3	9	5		28 17 14 11 8 
4	9	10		34 28 25 23 21 19 18 17 15 12 
5	9	7		34 33 23 19 18 17 13 
6	9	6		22 21 20 18 17 15 
7	9	8		32 28 25 23 19 18 17 12 
8	9	7		34 33 26 25 23 19 13 
9	9	7		34 33 28 26 25 24 13 
10	9	5		33 31 23 21 12 
11	9	4		33 24 23 12 
12	9	8		43 40 37 36 30 29 27 26 
13	9	5		43 36 32 29 21 
14	9	5		33 32 29 26 21 
15	9	6		49 46 38 35 32 24 
16	9	8		49 46 43 42 36 35 29 28 
17	9	6		47 43 39 31 30 26 
18	9	5		43 31 30 29 26 
19	9	2		27 24 
20	9	7		43 42 36 35 33 30 29 
21	9	5		49 40 39 37 27 
22	9	4		43 42 30 28 
23	9	11		54 49 47 46 44 43 42 41 40 39 38 
24	9	8		54 45 44 43 42 39 37 31 
25	9	4		46 43 40 30 
26	9	8		56 54 49 46 45 44 42 35 
27	9	7		54 46 45 44 42 38 35 
28	9	7		54 52 45 44 39 38 37 
29	9	8		62 56 54 52 51 48 47 45 
30	9	5		54 49 45 44 38 
31	9	6		66 56 52 48 41 40 
32	9	5		56 52 47 42 39 
33	9	4		56 48 41 39 
34	9	2		56 37 
35	9	5		66 52 50 48 41 
36	9	5		62 55 54 48 39 
37	9	3		66 47 41 
38	9	6		70 66 56 55 53 51 
39	9	6		78 66 64 61 57 50 
40	9	6		78 64 62 61 57 50 
41	9	5		70 62 55 53 51 
42	9	5		62 61 57 55 50 
43	9	5		64 56 55 52 50 
44	9	3		66 64 48 
45	9	8		78 70 66 64 61 60 57 53 
46	9	4		78 64 61 50 
47	9	3		57 55 50 
48	9	7		78 70 69 61 60 57 53 
49	9	8		78 70 66 64 62 61 60 59 
50	9	4		70 69 60 53 
51	9	6		78 69 64 61 60 58 
52	9	6		78 75 70 69 65 58 
53	9	2		59 58 
54	9	9		80 78 76 75 74 73 72 68 65 
55	9	6		78 74 73 69 68 67 
56	9	4		80 75 71 63 
57	9	3		80 67 63 
58	9	3		80 71 63 
59	9	6		81 80 76 75 73 65 
60	9	2		71 63 
61	9	6		82 76 74 73 71 68 
62	9	6		80 76 75 74 72 71 
63	9	5		76 74 73 72 68 
64	9	5		81 80 76 73 67 
65	9	1		67 
66	9	7		85 84 83 82 79 77 76 
67	9	6		101 100 88 84 82 71 
68	9	10		101 100 99 98 95 87 85 84 81 77 
69	9	4		87 82 80 76 
70	9	10		101 100 99 98 97 95 88 85 79 77 
71	9	6		99 98 85 83 79 77 
72	9	10		101 100 99 96 95 94 88 87 84 82 
73	9	8		101 99 98 96 88 85 84 79 
74	9	6		99 98 97 88 83 79 
75	9	7		100 97 96 95 88 87 79 
76	9	11		101 100 99 98 96 95 94 92 91 88 86 
77	9	6		96 94 93 92 91 86 
78	9	6		98 96 92 91 87 86 
79	9	5		94 93 92 91 86 
80	9	5		97 95 93 92 86 
81	9	4		97 92 91 86 
82	9	3		97 91 86 
83	9	3		95 92 87 
84	9	2		91 86 
85	9	3		93 90 89 
86	9	2		90 89 
87	9	2		90 89 
88	9	2		90 89 
89	9	1		102 
90	9	1		102 
91	9	1		102 
92	9	1		102 
93	9	1		102 
94	9	1		102 
95	9	1		102 
96	9	1		102 
97	9	1		102 
98	9	1		102 
99	9	1		102 
100	9	1		102 
101	9	1		102 
102	1	0		
************************************************************************
REQUESTS/DURATIONS
jobnr.	mode	dur	R1	R2	R3	R4	N1	N2	N3	N4	
------------------------------------------------------------------------
1	1	0	0	0	0	0	0	0	0	0	
2	1	10	5	3	1	5	18	18	29	26	
	2	11	4	3	1	4	14	17	28	24	
	3	13	4	3	1	3	14	15	27	23	
	4	16	4	3	1	3	12	14	26	19	
	5	18	4	3	1	2	11	12	25	17	
	6	20	4	3	1	2	8	12	24	16	
	7	24	4	3	1	1	8	10	24	13	
	8	25	4	3	1	1	7	10	23	11	
	9	29	4	3	1	1	5	8	22	10	
3	1	5	1	3	2	4	23	4	20	19	
	2	6	1	3	1	3	22	4	18	18	
	3	7	1	3	1	3	20	4	18	17	
	4	18	1	2	1	3	18	4	16	14	
	5	22	1	2	1	2	16	4	14	14	
	6	23	1	2	1	2	13	4	14	12	
	7	25	1	1	1	1	11	4	13	11	
	8	26	1	1	1	1	9	4	11	9	
	9	30	1	1	1	1	7	4	10	7	
4	1	1	3	4	4	3	27	10	19	18	
	2	2	3	4	4	3	25	9	17	16	
	3	18	3	4	4	3	25	9	16	15	
	4	22	2	3	3	3	23	9	15	13	
	5	23	2	3	2	2	20	8	13	13	
	6	24	2	3	2	2	20	8	10	11	
	7	25	1	2	1	1	17	8	10	9	
	8	26	1	2	1	1	15	8	6	8	
	9	29	1	2	1	1	14	8	6	6	
5	1	2	1	5	2	4	18	18	29	26	
	2	7	1	4	2	3	18	17	26	26	
	3	8	1	4	2	3	18	16	24	25	
	4	10	1	3	2	3	18	14	21	25	
	5	14	1	3	2	3	17	14	20	24	
	6	18	1	3	2	3	17	14	17	23	
	7	22	1	3	2	3	17	13	14	23	
	8	24	1	2	2	3	17	11	14	22	
	9	29	1	2	2	3	17	11	10	22	
6	1	10	3	4	5	5	20	6	16	24	
	2	13	3	4	4	4	18	6	15	24	
	3	17	3	3	4	4	16	6	15	24	
	4	18	3	3	3	3	16	5	15	23	
	5	19	3	3	2	3	14	4	14	22	
	6	20	3	2	2	3	12	4	14	22	
	7	21	3	1	2	3	11	4	14	21	
	8	22	3	1	1	2	9	3	14	21	
	9	28	3	1	1	2	8	3	14	21	
7	1	3	5	3	4	5	12	30	9	14	
	2	5	4	3	3	5	11	26	9	13	
	3	6	4	3	3	5	11	24	7	13	
	4	17	3	3	2	5	10	21	6	12	
	5	18	3	3	2	5	9	21	5	10	
	6	21	3	3	2	5	9	17	5	10	
	7	24	2	3	1	5	7	16	3	9	
	8	25	2	3	1	5	6	14	2	8	
	9	28	2	3	1	5	6	11	1	6	
8	1	6	4	3	2	4	26	29	20	28	
	2	12	4	3	2	3	25	28	17	26	
	3	13	4	3	2	3	20	27	16	21	
	4	14	4	3	2	3	19	27	12	20	
	5	16	4	3	1	3	17	26	11	17	
	6	23	4	3	1	2	14	26	9	13	
	7	25	4	3	1	2	11	26	7	9	
	8	26	4	3	1	2	6	25	6	5	
	9	29	4	3	1	2	4	25	2	4	
9	1	6	2	1	5	2	26	20	24	17	
	2	9	2	1	4	1	24	19	24	17	
	3	10	2	1	4	1	22	19	22	17	
	4	11	2	1	4	1	19	19	19	17	
	5	16	2	1	4	1	18	19	18	17	
	6	22	2	1	3	1	15	19	18	17	
	7	23	2	1	3	1	12	19	16	17	
	8	25	2	1	3	1	11	19	15	17	
	9	28	2	1	3	1	10	19	13	17	
10	1	2	4	3	1	1	25	26	18	16	
	2	10	3	2	1	1	22	24	17	15	
	3	14	3	2	1	1	21	21	16	15	
	4	18	3	2	1	1	19	21	16	15	
	5	20	3	1	1	1	18	18	15	14	
	6	23	2	1	1	1	17	18	14	14	
	7	24	2	1	1	1	17	16	13	14	
	8	25	2	1	1	1	14	15	12	14	
	9	27	2	1	1	1	14	14	12	14	
11	1	1	4	4	5	2	27	2	26	27	
	2	7	4	4	4	2	25	1	22	25	
	3	11	4	4	4	2	24	1	19	24	
	4	12	3	4	4	2	22	1	16	23	
	5	13	3	4	4	2	18	1	12	22	
	6	14	3	4	4	2	16	1	10	21	
	7	22	2	4	4	2	15	1	6	19	
	8	27	2	4	4	2	14	1	4	18	
	9	29	2	4	4	2	11	1	2	17	
12	1	2	5	5	5	1	28	20	22	12	
	2	3	4	4	4	1	28	18	22	11	
	3	8	4	3	4	1	26	18	21	10	
	4	9	4	3	4	1	25	18	21	10	
	5	10	4	3	4	1	24	17	20	10	
	6	11	4	2	4	1	23	16	20	9	
	7	16	4	1	4	1	22	16	20	8	
	8	20	4	1	4	1	20	16	19	8	
	9	30	4	1	4	1	19	15	19	8	
13	1	2	3	4	4	3	18	25	22	26	
	2	5	3	4	4	3	15	23	22	23	
	3	10	3	4	4	3	14	20	19	22	
	4	20	3	3	3	3	13	17	17	21	
	5	21	3	3	3	2	9	15	17	19	
	6	23	3	3	3	2	9	14	14	17	
	7	24	3	3	2	2	5	10	13	16	
	8	26	3	2	2	2	4	7	11	16	
	9	27	3	2	2	2	3	6	10	14	
14	1	4	5	3	2	5	21	20	9	9	
	2	5	4	2	2	4	19	20	8	9	
	3	6	3	2	2	4	18	20	7	8	
	4	9	3	2	2	4	16	20	7	8	
	5	10	3	2	2	3	15	20	6	8	
	6	11	2	2	2	3	14	19	5	7	
	7	15	2	2	2	3	13	19	4	7	
	8	16	1	2	2	3	12	19	4	6	
	9	17	1	2	2	3	12	19	3	6	
15	1	6	1	4	5	2	3	21	24	18	
	2	13	1	3	4	2	3	21	22	15	
	3	14	1	3	3	2	3	20	22	13	
	4	17	1	3	3	2	3	18	21	13	
	5	20	1	2	3	2	3	17	20	9	
	6	21	1	2	2	1	3	17	18	7	
	7	23	1	1	2	1	3	15	18	5	
	8	24	1	1	1	1	3	14	16	3	
	9	25	1	1	1	1	3	14	15	3	
16	1	2	2	2	2	5	14	22	20	19	
	2	3	2	2	2	4	13	18	19	17	
	3	8	2	2	2	4	12	17	17	15	
	4	10	2	2	2	4	9	16	13	13	
	5	17	2	2	2	4	9	13	12	11	
	6	18	1	2	2	4	6	11	10	8	
	7	20	1	2	2	4	6	9	8	7	
	8	27	1	2	2	4	4	6	5	6	
	9	29	1	2	2	4	3	5	3	4	
17	1	3	5	2	4	3	22	23	7	20	
	2	4	4	1	4	2	21	22	6	20	
	3	5	4	1	3	2	20	21	6	18	
	4	11	3	1	3	2	20	21	5	17	
	5	17	3	1	2	2	19	21	5	16	
	6	19	3	1	2	1	17	20	5	15	
	7	21	2	1	2	1	16	19	4	14	
	8	22	2	1	1	1	15	19	4	13	
	9	24	2	1	1	1	14	19	4	12	
18	1	1	3	4	3	4	22	15	30	22	
	2	2	3	4	2	4	21	15	30	22	
	3	6	3	4	2	4	21	15	30	18	
	4	10	3	4	2	3	19	15	30	17	
	5	15	3	4	2	3	19	15	30	16	
	6	16	3	3	2	3	17	14	30	14	
	7	17	3	3	2	2	17	14	30	11	
	8	18	3	3	2	2	15	14	30	8	
	9	27	3	3	2	2	14	14	30	6	
19	1	3	5	5	3	5	5	29	19	18	
	2	5	4	4	3	5	5	28	18	17	
	3	9	4	4	3	5	5	28	18	16	
	4	10	4	3	3	5	5	27	18	15	
	5	11	4	3	3	5	5	27	17	14	
	6	17	3	3	2	5	5	27	17	13	
	7	24	3	3	2	5	5	26	17	12	
	8	25	3	2	2	5	5	26	16	10	
	9	27	3	2	2	5	5	26	16	9	
20	1	2	3	4	3	5	21	29	25	24	
	2	7	3	4	3	5	19	29	23	24	
	3	9	3	4	3	5	18	27	23	21	
	4	13	3	3	3	5	18	26	20	17	
	5	15	2	3	3	5	17	25	20	15	
	6	16	2	3	3	5	16	24	18	15	
	7	19	2	2	3	5	14	23	16	10	
	8	21	1	2	3	5	14	23	16	9	
	9	24	1	2	3	5	13	21	15	6	
21	1	7	4	2	3	5	9	9	17	28	
	2	10	3	1	2	5	8	8	17	28	
	3	12	3	1	2	5	6	7	17	28	
	4	16	3	1	2	5	5	6	17	28	
	5	17	2	1	2	5	5	6	16	27	
	6	19	2	1	2	5	4	4	16	27	
	7	20	2	1	2	5	2	3	16	27	
	8	24	2	1	2	5	1	3	16	26	
	9	29	2	1	2	5	1	2	16	26	
22	1	2	3	3	1	5	18	29	24	27	
	2	3	3	3	1	4	18	28	24	23	
	3	7	3	3	1	4	16	27	24	22	
	4	10	3	3	1	4	15	26	24	21	
	5	13	3	3	1	4	13	25	23	20	
	6	15	3	3	1	4	11	25	23	19	
	7	16	3	3	1	4	9	24	23	17	
	8	17	3	3	1	4	9	24	23	16	
	9	27	3	3	1	4	6	23	23	14	
23	1	6	4	1	2	2	17	16	29	17	
	2	7	3	1	1	2	16	15	27	17	
	3	9	3	1	1	2	16	14	26	15	
	4	10	3	1	1	2	16	12	24	14	
	5	20	2	1	1	2	16	12	22	12	
	6	21	2	1	1	2	16	11	22	12	
	7	22	2	1	1	2	16	9	19	10	
	8	24	1	1	1	2	16	8	18	10	
	9	25	1	1	1	2	16	7	18	8	
24	1	3	4	4	4	5	25	8	16	19	
	2	4	4	3	4	4	23	7	15	18	
	3	8	4	3	4	4	22	7	13	16	
	4	10	4	2	4	3	20	5	12	14	
	5	14	4	2	4	3	18	5	12	13	
	6	20	4	2	4	2	16	5	11	11	
	7	27	4	1	4	1	15	3	9	9	
	8	28	4	1	4	1	13	3	8	7	
	9	29	4	1	4	1	13	2	8	7	
25	1	4	1	5	2	3	9	23	21	11	
	2	7	1	4	1	2	7	22	20	11	
	3	9	1	4	1	2	7	20	19	9	
	4	17	1	4	1	2	6	19	19	9	
	5	18	1	3	1	2	5	17	19	8	
	6	19	1	3	1	2	5	15	18	7	
	7	26	1	3	1	2	5	15	17	6	
	8	27	1	2	1	2	3	12	17	6	
	9	28	1	2	1	2	3	12	17	5	
26	1	2	3	5	5	3	24	20	29	8	
	2	4	3	4	4	3	24	20	29	8	
	3	7	3	4	4	3	23	17	29	9	
	4	8	3	4	4	3	23	17	29	8	
	5	14	3	4	4	3	23	15	29	8	
	6	21	2	3	3	3	22	13	29	7	
	7	22	2	3	3	3	21	12	29	7	
	8	24	2	3	3	3	21	10	29	7	
	9	26	2	3	3	3	21	10	29	6	
27	1	2	5	5	2	4	30	9	27	28	
	2	7	4	4	1	4	26	7	25	27	
	3	9	3	4	1	4	25	7	25	26	
	4	16	3	4	1	4	22	7	23	25	
	5	18	2	3	1	4	21	6	23	24	
	6	21	2	3	1	4	20	6	22	23	
	7	22	1	3	1	4	16	5	20	22	
	8	25	1	3	1	4	14	4	20	21	
	9	27	1	3	1	4	12	4	19	21	
28	1	3	4	3	2	3	3	13	26	30	
	2	9	4	3	2	3	3	13	24	28	
	3	10	4	3	2	3	3	12	24	27	
	4	20	4	3	2	3	3	11	20	26	
	5	21	4	3	2	3	2	9	20	25	
	6	22	4	2	2	2	2	8	17	25	
	7	23	4	2	2	2	1	7	14	23	
	8	24	4	2	2	2	1	7	13	22	
	9	28	4	2	2	2	1	6	12	22	
29	1	1	4	5	2	5	27	17	19	20	
	2	5	3	5	1	5	23	14	19	18	
	3	8	3	5	1	5	21	14	18	18	
	4	11	3	5	1	5	19	12	18	18	
	5	20	3	5	1	5	17	12	17	17	
	6	22	2	5	1	5	16	10	17	17	
	7	25	2	5	1	5	12	9	16	16	
	8	27	2	5	1	5	11	9	15	15	
	9	28	2	5	1	5	9	8	15	15	
30	1	3	3	5	5	2	24	19	27	10	
	2	5	3	4	4	2	24	17	26	10	
	3	6	3	4	4	2	22	16	25	10	
	4	10	3	4	3	2	22	12	25	10	
	5	16	3	4	3	2	21	12	23	9	
	6	23	3	4	3	1	20	9	21	9	
	7	24	3	4	2	1	19	8	19	9	
	8	25	3	4	2	1	17	6	18	9	
	9	30	3	4	2	1	16	4	18	9	
31	1	4	5	5	3	4	9	21	22	27	
	2	5	4	4	2	3	9	21	19	27	
	3	6	3	4	2	3	9	18	19	27	
	4	7	3	4	2	3	8	15	17	27	
	5	8	2	4	2	2	7	14	16	26	
	6	21	2	4	2	2	7	10	16	26	
	7	22	1	4	2	2	7	9	14	26	
	8	25	1	4	2	1	6	5	13	26	
	9	30	1	4	2	1	6	3	13	26	
32	1	2	5	2	3	2	23	21	17	17	
	2	7	4	2	2	2	21	19	16	14	
	3	8	3	2	2	2	19	19	16	14	
	4	9	3	2	2	2	18	18	14	13	
	5	10	3	2	1	2	15	18	14	11	
	6	13	2	2	1	2	15	17	11	10	
	7	15	1	2	1	2	12	16	10	7	
	8	22	1	2	1	2	11	16	9	7	
	9	29	1	2	1	2	9	15	9	6	
33	1	3	5	4	3	4	16	15	9	20	
	2	4	4	4	3	4	15	13	8	19	
	3	5	4	4	3	4	15	13	7	19	
	4	10	3	4	3	4	15	12	7	19	
	5	14	3	4	3	3	15	11	7	18	
	6	15	3	4	3	3	15	11	6	18	
	7	21	2	4	3	3	15	10	5	18	
	8	22	2	4	3	3	15	9	5	18	
	9	29	2	4	3	3	15	9	5	17	
34	1	4	4	4	4	5	21	16	25	17	
	2	13	4	4	4	5	20	16	24	16	
	3	14	4	4	4	5	19	15	22	15	
	4	15	4	4	3	5	18	14	16	14	
	5	18	4	4	3	5	18	12	13	14	
	6	19	3	4	2	5	18	10	11	13	
	7	23	3	4	1	5	16	9	7	13	
	8	24	3	4	1	5	16	8	7	12	
	9	25	3	4	1	5	15	8	4	12	
35	1	2	4	1	1	3	10	26	29	26	
	2	3	3	1	1	3	10	23	24	25	
	3	4	3	1	1	3	10	23	22	21	
	4	17	2	1	1	2	10	20	20	18	
	5	19	2	1	1	2	10	20	19	17	
	6	20	2	1	1	2	10	17	17	13	
	7	23	1	1	1	1	10	17	12	10	
	8	28	1	1	1	1	10	14	11	7	
	9	29	1	1	1	1	10	13	9	7	
36	1	7	5	1	2	4	8	9	4	24	
	2	9	4	1	2	4	8	8	3	24	
	3	10	4	1	2	3	8	8	3	20	
	4	12	4	1	2	3	8	8	3	18	
	5	15	4	1	2	3	7	7	3	18	
	6	19	4	1	1	2	7	7	3	16	
	7	20	4	1	1	2	6	7	3	14	
	8	21	4	1	1	1	6	7	3	10	
	9	22	4	1	1	1	6	7	3	9	
37	1	2	4	3	4	4	26	23	21	25	
	2	8	4	3	3	4	26	21	20	24	
	3	11	4	3	3	4	26	20	19	24	
	4	12	4	2	3	4	26	19	19	24	
	5	13	4	2	3	4	26	15	18	24	
	6	19	4	2	3	4	26	15	18	23	
	7	24	4	2	3	4	26	11	17	23	
	8	27	4	1	3	4	26	9	17	23	
	9	30	4	1	3	4	26	7	16	23	
38	1	10	4	4	3	2	16	20	27	7	
	2	14	3	3	2	1	15	20	27	6	
	3	17	3	3	2	1	15	20	27	5	
	4	19	2	3	2	1	14	19	27	4	
	5	21	2	3	2	1	14	19	27	3	
	6	26	2	3	2	1	13	18	27	4	
	7	27	2	3	2	1	13	17	27	3	
	8	28	1	3	2	1	13	17	27	3	
	9	29	1	3	2	1	12	17	27	2	
39	1	1	5	4	5	2	26	18	16	19	
	2	2	4	3	4	2	26	16	15	19	
	3	13	4	3	4	2	26	15	14	17	
	4	15	3	2	4	2	25	14	11	14	
	5	16	3	2	3	2	25	14	11	14	
	6	20	3	2	3	2	25	13	9	11	
	7	21	2	1	3	2	25	11	9	10	
	8	22	2	1	2	2	24	11	7	8	
	9	23	2	1	2	2	24	10	5	7	
40	1	1	4	2	5	4	18	9	20	30	
	2	5	3	2	5	3	18	9	20	27	
	3	6	3	2	5	3	16	9	17	27	
	4	8	3	2	5	3	16	9	17	26	
	5	9	3	1	5	2	14	9	14	25	
	6	15	3	1	5	2	14	9	13	23	
	7	22	3	1	5	2	13	9	11	22	
	8	23	3	1	5	2	12	9	9	20	
	9	29	3	1	5	2	11	9	8	19	
41	1	6	5	5	4	3	22	13	8	29	
	2	9	4	4	3	3	20	11	7	28	
	3	11	4	4	3	3	19	10	7	27	
	4	12	4	3	3	3	18	10	7	26	
	5	13	3	2	3	3	18	9	7	25	
	6	14	3	2	3	3	15	9	6	25	
	7	20	3	2	3	3	14	7	6	24	
	8	21	3	1	3	3	13	7	6	23	
	9	27	3	1	3	3	13	6	6	22	
42	1	6	5	5	5	4	23	22	28	3	
	2	13	4	4	4	3	21	21	27	2	
	3	14	4	4	4	3	20	20	27	2	
	4	15	4	4	4	2	20	19	26	2	
	5	16	4	4	4	2	19	17	26	2	
	6	17	4	3	4	2	17	17	25	1	
	7	18	4	3	4	2	16	16	24	1	
	8	19	4	3	4	1	16	14	24	1	
	9	20	4	3	4	1	14	13	24	1	
43	1	2	4	4	5	4	12	20	4	18	
	2	7	3	3	4	3	11	18	4	17	
	3	8	3	3	4	3	11	17	4	15	
	4	13	3	3	3	3	11	16	4	12	
	5	17	3	2	3	2	10	13	4	10	
	6	19	3	2	3	2	9	13	4	9	
	7	22	3	2	3	2	9	11	4	6	
	8	27	3	2	2	2	8	9	4	5	
	9	28	3	2	2	2	7	8	4	2	
44	1	2	5	4	3	2	24	26	28	24	
	2	3	5	4	2	1	20	25	27	22	
	3	4	5	4	2	1	19	24	25	21	
	4	5	5	4	2	1	18	23	23	20	
	5	6	5	4	2	1	15	23	22	19	
	6	18	5	4	2	1	13	21	21	17	
	7	22	5	4	2	1	9	20	19	16	
	8	24	5	4	2	1	6	19	18	15	
	9	25	5	4	2	1	4	19	18	14	
45	1	2	4	2	1	4	27	21	26	24	
	2	6	4	2	1	3	26	20	22	22	
	3	9	4	2	1	3	26	18	20	19	
	4	10	4	2	1	3	26	18	18	18	
	5	12	4	2	1	3	25	17	16	16	
	6	14	3	1	1	2	25	16	16	12	
	7	23	3	1	1	2	25	15	14	10	
	8	25	3	1	1	2	25	14	10	8	
	9	30	3	1	1	2	25	12	10	5	
46	1	8	5	4	5	2	5	28	26	9	
	2	9	4	3	4	2	5	28	25	9	
	3	11	4	3	4	2	5	28	23	9	
	4	12	4	3	4	2	5	28	22	9	
	5	16	4	2	3	2	5	28	22	9	
	6	17	4	2	3	1	5	28	21	9	
	7	21	4	2	3	1	5	28	19	9	
	8	24	4	1	3	1	5	28	18	9	
	9	29	4	1	3	1	5	28	17	9	
47	1	2	4	4	3	4	17	17	26	21	
	2	4	3	4	3	4	16	13	22	21	
	3	6	3	4	3	4	16	13	19	21	
	4	7	3	3	3	3	15	9	16	21	
	5	9	3	3	3	3	15	9	16	20	
	6	12	3	3	3	3	14	6	12	20	
	7	21	3	2	3	2	13	6	8	20	
	8	23	3	2	3	2	13	2	7	19	
	9	25	3	2	3	2	13	2	6	19	
48	1	2	5	1	4	5	22	17	5	17	
	2	8	4	1	4	4	20	14	5	16	
	3	14	3	1	4	3	19	14	5	16	
	4	16	3	1	4	3	19	11	5	16	
	5	17	3	1	4	3	18	9	5	16	
	6	20	2	1	3	2	17	7	4	16	
	7	21	2	1	3	2	16	5	4	16	
	8	23	1	1	3	1	16	5	4	16	
	9	29	1	1	3	1	15	2	4	16	
49	1	5	3	3	3	1	19	21	24	10	
	2	6	2	2	2	1	19	17	24	10	
	3	13	2	2	2	1	19	17	24	8	
	4	14	2	2	2	1	19	13	24	7	
	5	15	2	2	2	1	19	11	24	7	
	6	16	2	1	2	1	19	10	24	6	
	7	20	2	1	2	1	19	8	24	5	
	8	24	2	1	2	1	19	5	24	4	
	9	27	2	1	2	1	19	4	24	2	
50	1	6	2	4	4	4	28	26	29	15	
	2	7	2	4	3	4	26	24	27	13	
	3	8	2	3	3	4	25	20	26	12	
	4	9	2	3	3	4	23	16	24	11	
	5	17	2	3	3	4	21	13	23	11	
	6	23	2	2	3	4	21	10	21	11	
	7	24	2	2	3	4	19	10	19	9	
	8	27	2	1	3	4	18	4	18	8	
	9	30	2	1	3	4	16	4	17	8	
51	1	4	4	2	2	4	22	27	5	7	
	2	5	4	1	2	4	21	27	4	7	
	3	6	4	1	2	4	21	26	4	6	
	4	7	4	1	2	3	21	24	4	6	
	5	13	3	1	2	2	21	24	3	5	
	6	17	3	1	2	2	21	23	2	4	
	7	19	3	1	2	2	21	22	2	3	
	8	21	3	1	2	1	21	21	2	3	
	9	28	3	1	2	1	21	20	1	2	
52	1	4	4	2	5	5	10	21	30	14	
	2	6	3	2	4	4	9	20	26	13	
	3	14	3	2	4	4	9	20	23	12	
	4	15	3	2	4	4	9	20	20	10	
	5	20	2	1	4	3	8	19	17	8	
	6	27	2	1	3	3	7	19	16	7	
	7	28	1	1	3	3	7	19	15	4	
	8	29	1	1	3	3	6	19	10	2	
	9	30	1	1	3	3	6	19	8	2	
53	1	15	4	4	1	5	26	18	9	25	
	2	16	4	4	1	4	26	18	9	25	
	3	17	4	4	1	4	24	18	8	21	
	4	20	4	4	1	3	24	18	8	20	
	5	21	3	3	1	3	21	17	7	17	
	6	23	3	3	1	2	21	17	7	12	
	7	26	3	3	1	2	19	16	7	10	
	8	27	2	3	1	1	18	16	6	6	
	9	29	2	3	1	1	18	16	6	5	
54	1	7	2	5	4	4	23	10	26	17	
	2	10	2	4	3	4	21	9	23	17	
	3	11	2	4	3	4	19	9	19	17	
	4	13	2	3	3	4	16	9	18	16	
	5	17	2	2	3	4	11	8	13	15	
	6	21	2	2	3	4	9	8	13	15	
	7	22	2	2	3	4	8	8	8	15	
	8	23	2	1	3	4	4	8	5	14	
	9	29	2	1	3	4	3	8	2	14	
55	1	1	3	2	5	2	19	26	21	22	
	2	5	2	2	4	2	16	26	19	20	
	3	7	2	2	3	2	15	25	17	19	
	4	8	2	2	3	2	13	25	15	18	
	5	9	2	2	2	2	11	24	12	18	
	6	21	1	2	2	2	9	23	11	16	
	7	24	1	2	1	2	9	23	10	16	
	8	27	1	2	1	2	5	22	8	15	
	9	30	1	2	1	2	4	21	6	14	
56	1	2	4	4	2	2	22	10	25	26	
	2	3	4	4	2	2	22	9	24	25	
	3	6	4	4	2	2	22	7	24	24	
	4	8	4	3	2	2	21	6	24	21	
	5	9	3	2	2	1	20	6	24	20	
	6	11	3	2	1	1	20	5	24	20	
	7	14	3	2	1	1	19	4	24	19	
	8	15	3	1	1	1	19	3	24	17	
	9	16	3	1	1	1	19	1	24	16	
57	1	3	2	4	5	3	25	20	21	20	
	2	7	1	3	5	2	22	20	19	18	
	3	11	1	3	5	2	19	19	15	14	
	4	14	1	3	5	2	18	19	14	14	
	5	16	1	2	5	2	14	17	10	12	
	6	21	1	2	5	1	12	17	9	9	
	7	22	1	2	5	1	9	17	7	7	
	8	25	1	2	5	1	6	16	5	4	
	9	29	1	2	5	1	5	15	1	3	
58	1	10	5	5	2	4	27	20	26	18	
	2	11	4	4	2	4	26	19	25	15	
	3	15	4	4	2	4	24	19	25	14	
	4	16	3	4	2	3	20	18	25	10	
	5	17	2	4	2	3	17	17	24	9	
	6	18	2	4	1	2	14	17	24	7	
	7	21	2	4	1	2	11	16	24	7	
	8	22	1	4	1	1	11	15	23	4	
	9	27	1	4	1	1	6	15	23	3	
59	1	2	5	5	5	2	30	28	17	23	
	2	6	4	4	4	2	30	28	16	21	
	3	7	4	4	4	2	30	27	16	19	
	4	9	4	3	3	2	30	27	15	18	
	5	10	3	3	2	2	30	26	14	17	
	6	11	3	3	2	2	30	25	12	17	
	7	14	3	3	2	2	30	24	11	15	
	8	20	3	2	1	2	30	24	10	14	
	9	27	3	2	1	2	30	23	10	14	
60	1	2	3	3	5	2	14	22	29	8	
	2	4	3	3	4	2	14	21	24	8	
	3	7	3	3	3	2	13	20	21	8	
	4	10	3	2	3	2	13	16	19	8	
	5	13	2	2	3	2	12	15	13	7	
	6	14	2	2	2	1	12	14	12	7	
	7	15	2	1	2	1	11	11	8	6	
	8	27	2	1	1	1	10	11	4	6	
	9	28	2	1	1	1	10	9	4	6	
61	1	7	5	2	3	3	25	5	22	24	
	2	9	5	2	3	2	23	4	21	22	
	3	10	5	2	3	2	23	4	20	20	
	4	15	5	2	3	2	22	4	18	18	
	5	17	5	2	2	1	20	4	14	15	
	6	19	5	1	2	1	18	4	12	15	
	7	20	5	1	2	1	17	4	12	12	
	8	23	5	1	2	1	15	4	8	10	
	9	29	5	1	2	1	15	4	6	9	
62	1	4	1	1	5	2	13	19	6	4	
	2	11	1	1	4	2	12	17	6	4	
	3	13	1	1	4	2	12	16	6	4	
	4	18	1	1	4	2	10	16	6	4	
	5	19	1	1	3	2	10	14	5	4	
	6	24	1	1	3	2	9	13	5	4	
	7	25	1	1	3	2	7	13	5	4	
	8	26	1	1	3	2	6	12	5	4	
	9	30	1	1	3	2	6	10	5	4	
63	1	1	5	1	5	2	17	30	24	17	
	2	3	4	1	4	2	16	27	24	17	
	3	5	4	1	4	2	15	25	22	17	
	4	7	4	1	3	2	14	21	22	17	
	5	8	4	1	3	2	13	19	20	16	
	6	10	4	1	3	2	13	15	20	16	
	7	16	4	1	2	2	11	14	18	16	
	8	20	4	1	2	2	10	12	18	16	
	9	21	4	1	2	2	10	10	17	16	
64	1	5	5	1	4	4	16	26	22	28	
	2	6	4	1	3	4	15	23	21	25	
	3	9	4	1	3	4	15	20	19	23	
	4	13	4	1	3	4	15	19	16	22	
	5	18	4	1	2	4	15	16	16	20	
	6	19	4	1	2	4	15	14	12	20	
	7	24	4	1	2	4	15	12	11	18	
	8	25	4	1	1	4	15	6	9	16	
	9	29	4	1	1	4	15	6	5	15	
65	1	1	3	3	2	3	14	22	23	26	
	2	3	3	2	2	3	14	17	22	22	
	3	9	3	2	2	3	12	15	22	21	
	4	12	3	2	2	2	11	13	22	18	
	5	13	2	1	2	2	10	13	22	18	
	6	14	2	1	2	2	10	10	21	16	
	7	20	2	1	2	1	8	7	21	15	
	8	28	1	1	2	1	7	7	21	12	
	9	29	1	1	2	1	7	4	21	10	
66	1	1	5	3	3	3	17	14	24	14	
	2	2	4	2	3	3	17	14	21	14	
	3	4	4	2	3	3	16	13	20	13	
	4	13	3	2	3	3	15	11	16	13	
	5	16	3	2	3	3	15	11	16	12	
	6	19	3	2	3	3	14	9	13	12	
	7	20	2	2	3	3	13	9	8	12	
	8	23	2	2	3	3	12	7	6	11	
	9	29	2	2	3	3	12	6	5	11	
67	1	2	5	2	4	1	23	18	28	14	
	2	6	4	1	4	1	19	18	25	14	
	3	12	4	1	3	1	19	18	25	11	
	4	13	4	1	3	1	14	18	24	10	
	5	15	3	1	2	1	12	18	22	8	
	6	16	3	1	2	1	11	18	21	7	
	7	24	3	1	2	1	10	18	20	6	
	8	26	3	1	1	1	5	18	19	4	
	9	29	3	1	1	1	3	18	17	4	
68	1	1	3	4	2	2	30	15	18	30	
	2	10	3	3	1	1	26	15	18	28	
	3	13	3	3	1	1	24	15	18	27	
	4	14	3	2	1	1	22	15	17	27	
	5	15	3	2	1	1	21	15	17	26	
	6	19	2	2	1	1	18	15	17	25	
	7	20	2	2	1	1	17	15	17	23	
	8	22	2	1	1	1	15	15	16	22	
	9	30	2	1	1	1	12	15	16	22	
69	1	7	1	5	2	4	19	16	19	22	
	2	8	1	5	1	4	16	15	18	20	
	3	9	1	5	1	4	15	14	17	19	
	4	12	1	5	1	4	13	14	14	17	
	5	13	1	5	1	4	11	13	14	16	
	6	15	1	5	1	4	10	12	13	15	
	7	16	1	5	1	4	8	12	11	15	
	8	20	1	5	1	4	8	11	9	13	
	9	30	1	5	1	4	7	11	7	13	
70	1	6	4	2	4	2	29	22	21	16	
	2	9	3	2	3	2	25	21	18	15	
	3	10	3	2	3	2	20	19	16	15	
	4	12	3	2	3	2	18	18	14	14	
	5	13	2	2	2	1	14	18	12	12	
	6	14	2	2	2	1	10	18	11	11	
	7	15	2	2	2	1	9	17	9	11	
	8	23	1	2	1	1	4	16	8	9	
	9	24	1	2	1	1	4	15	6	9	
71	1	8	4	2	2	2	27	19	15	29	
	2	10	4	2	2	2	26	18	14	27	
	3	12	4	2	2	2	26	17	11	26	
	4	14	3	2	2	2	24	16	9	25	
	5	16	3	2	2	2	23	13	8	23	
	6	25	3	2	2	2	23	11	8	21	
	7	26	3	2	2	2	22	9	5	19	
	8	27	2	2	2	2	20	9	5	19	
	9	30	2	2	2	2	20	6	3	17	
72	1	2	4	4	3	2	5	16	11	3	
	2	3	4	4	3	1	5	14	10	3	
	3	4	4	4	3	1	5	14	9	3	
	4	5	4	4	3	1	5	13	7	3	
	5	10	4	4	2	1	5	11	7	3	
	6	12	4	4	2	1	5	11	5	3	
	7	18	4	4	2	1	5	10	5	3	
	8	21	4	4	2	1	5	8	3	3	
	9	30	4	4	2	1	5	7	3	3	
73	1	6	3	4	1	3	28	18	12	30	
	2	10	2	4	1	2	26	17	11	29	
	3	11	2	3	1	2	26	16	11	29	
	4	19	2	3	1	2	26	15	10	29	
	5	20	2	3	1	2	24	15	10	28	
	6	21	2	2	1	2	24	14	10	28	
	7	23	2	2	1	2	23	14	10	28	
	8	24	2	1	1	2	22	14	9	28	
	9	25	2	1	1	2	22	13	9	28	
74	1	3	1	4	1	1	19	19	22	24	
	2	14	1	4	1	1	18	19	22	22	
	3	18	1	4	1	1	18	19	22	20	
	4	19	1	3	1	1	18	18	21	17	
	5	22	1	3	1	1	17	18	21	17	
	6	23	1	3	1	1	17	18	21	15	
	7	26	1	2	1	1	17	18	20	13	
	8	27	1	2	1	1	17	17	20	13	
	9	28	1	2	1	1	17	17	20	10	
75	1	8	3	4	5	4	14	16	20	15	
	2	9	3	3	4	4	13	15	19	15	
	3	10	3	3	4	3	12	14	19	13	
	4	11	3	3	3	3	11	14	19	11	
	5	16	2	2	3	2	11	13	19	11	
	6	21	2	2	3	2	10	13	18	10	
	7	27	2	1	2	2	9	12	18	7	
	8	28	1	1	2	1	8	11	18	6	
	9	29	1	1	2	1	8	11	18	5	
76	1	1	1	4	3	5	27	21	20	13	
	2	2	1	3	2	4	27	19	19	13	
	3	4	1	3	2	4	26	16	17	11	
	4	12	1	3	2	4	24	16	13	11	
	5	15	1	3	2	3	24	14	12	10	
	6	16	1	2	2	3	23	12	10	9	
	7	17	1	2	2	3	21	11	9	9	
	8	18	1	2	2	2	21	7	4	7	
	9	29	1	2	2	2	20	7	4	7	
77	1	7	1	4	4	2	27	7	9	22	
	2	17	1	4	4	2	27	5	8	22	
	3	18	1	4	3	2	25	5	8	20	
	4	24	1	4	3	2	24	5	7	15	
	5	25	1	4	3	2	23	4	6	15	
	6	26	1	3	2	2	22	4	5	13	
	7	27	1	3	2	2	21	3	3	9	
	8	28	1	3	1	2	20	3	3	8	
	9	29	1	3	1	2	19	2	2	6	
78	1	2	3	4	2	1	19	22	29	22	
	2	5	2	4	2	1	18	20	27	21	
	3	12	2	3	2	1	18	19	25	21	
	4	15	2	3	2	1	18	17	25	21	
	5	16	1	2	2	1	17	15	22	20	
	6	18	1	2	2	1	16	12	21	20	
	7	24	1	1	2	1	15	11	21	19	
	8	25	1	1	2	1	15	10	20	19	
	9	29	1	1	2	1	14	8	18	19	
79	1	5	5	1	5	3	17	17	9	25	
	2	14	4	1	4	3	17	15	9	22	
	3	18	4	1	4	3	16	14	8	21	
	4	22	4	1	3	3	15	12	6	19	
	5	26	3	1	3	3	14	12	6	17	
	6	27	3	1	2	3	12	9	5	14	
	7	28	3	1	2	3	11	8	5	12	
	8	29	3	1	1	3	10	6	4	10	
	9	30	3	1	1	3	9	6	3	9	
80	1	5	4	2	3	5	9	27	27	21	
	2	8	4	2	3	4	9	24	27	19	
	3	9	3	2	3	4	9	24	27	18	
	4	13	3	2	3	4	9	21	27	17	
	5	14	3	2	3	3	8	19	26	16	
	6	15	2	2	3	3	8	18	26	15	
	7	20	1	2	3	3	7	18	25	13	
	8	25	1	2	3	3	7	15	25	11	
	9	29	1	2	3	3	7	13	25	10	
81	1	1	4	3	4	4	13	12	21	23	
	2	2	3	3	4	4	13	10	20	23	
	3	7	3	3	4	4	13	10	19	22	
	4	19	3	3	4	4	13	9	17	22	
	5	24	3	2	3	4	13	8	17	21	
	6	25	3	2	3	4	13	8	16	21	
	7	26	3	2	2	4	13	8	15	21	
	8	27	3	2	2	4	13	7	14	20	
	9	28	3	2	2	4	13	6	14	20	
82	1	2	2	4	5	3	19	16	2	25	
	2	3	2	4	4	3	17	15	2	22	
	3	5	2	4	4	3	14	15	2	22	
	4	6	2	4	3	3	12	15	2	21	
	5	15	2	4	2	3	12	15	2	17	
	6	17	1	4	2	3	8	15	2	16	
	7	19	1	4	1	3	6	15	2	14	
	8	25	1	4	1	3	6	15	2	12	
	9	26	1	4	1	3	3	15	2	12	
83	1	3	4	3	3	2	13	23	26	15	
	2	5	4	3	3	2	13	21	21	15	
	3	7	4	3	3	2	13	21	20	15	
	4	10	3	3	3	2	13	20	18	14	
	5	14	3	3	2	2	13	20	14	14	
	6	18	3	3	2	2	13	20	12	14	
	7	19	3	3	2	2	13	19	8	13	
	8	26	2	3	1	2	13	18	5	13	
	9	29	2	3	1	2	13	18	3	13	
84	1	3	3	4	5	2	29	30	24	16	
	2	5	2	3	4	2	28	29	23	16	
	3	11	2	3	3	2	26	28	23	16	
	4	15	2	2	3	2	26	28	21	16	
	5	16	2	2	2	2	25	27	20	16	
	6	19	2	2	2	2	24	26	19	15	
	7	23	2	1	2	2	23	26	18	15	
	8	25	2	1	1	2	22	24	17	15	
	9	27	2	1	1	2	20	24	17	15	
85	1	1	3	2	4	3	26	24	14	17	
	2	2	2	2	4	3	24	23	13	16	
	3	7	2	2	3	3	22	23	13	16	
	4	10	2	2	3	3	20	23	13	15	
	5	14	2	2	2	2	20	22	12	15	
	6	16	2	2	2	2	17	21	12	15	
	7	18	2	2	1	2	17	21	12	15	
	8	22	2	2	1	2	15	21	12	14	
	9	30	2	2	1	2	12	20	12	14	
86	1	3	2	1	5	2	28	18	11	20	
	2	5	2	1	4	2	25	18	11	18	
	3	13	2	1	4	2	24	17	10	17	
	4	14	2	1	4	2	22	17	9	16	
	5	15	2	1	4	2	22	16	8	16	
	6	17	2	1	4	2	19	16	8	15	
	7	19	2	1	4	2	18	15	7	15	
	8	23	2	1	4	2	16	15	7	13	
	9	28	2	1	4	2	16	15	6	13	
87	1	7	4	3	4	3	13	25	19	12	
	2	10	4	3	4	3	12	23	17	11	
	3	15	4	3	4	3	12	21	17	11	
	4	18	4	3	4	3	12	20	15	10	
	5	20	4	3	4	3	10	17	14	9	
	6	21	4	3	4	3	10	15	14	9	
	7	22	4	3	4	3	10	14	12	8	
	8	25	4	3	4	3	8	12	12	8	
	9	30	4	3	4	3	8	11	11	8	
88	1	1	1	4	5	2	11	20	4	29	
	2	11	1	3	4	2	11	16	4	29	
	3	12	1	3	4	2	11	14	4	29	
	4	13	1	3	4	2	11	12	4	29	
	5	16	1	3	3	1	10	9	4	29	
	6	21	1	3	3	1	10	9	4	28	
	7	24	1	3	2	1	10	7	4	29	
	8	25	1	3	2	1	9	3	4	29	
	9	27	1	3	2	1	9	3	4	28	
89	1	1	1	5	3	3	25	30	29	22	
	2	9	1	4	2	3	22	27	28	20	
	3	10	1	4	2	3	21	26	26	20	
	4	11	1	4	2	3	21	23	26	20	
	5	14	1	3	2	3	20	22	23	19	
	6	15	1	3	1	3	18	20	22	18	
	7	19	1	3	1	3	17	20	22	18	
	8	29	1	2	1	3	17	18	20	18	
	9	30	1	2	1	3	15	17	20	17	
90	1	1	5	3	3	4	12	24	19	20	
	2	8	5	3	3	4	12	23	16	16	
	3	12	5	3	3	4	11	23	15	16	
	4	17	5	3	3	4	10	22	14	12	
	5	20	5	3	3	3	9	22	11	12	
	6	21	5	3	2	3	8	22	9	8	
	7	22	5	3	2	3	7	21	9	7	
	8	25	5	3	2	2	6	21	7	4	
	9	30	5	3	2	2	4	21	6	3	
91	1	3	4	5	4	5	30	29	28	24	
	2	4	3	4	4	4	28	27	28	20	
	3	5	3	4	4	4	27	25	26	20	
	4	6	3	4	3	4	27	25	23	15	
	5	7	3	4	3	3	25	23	20	13	
	6	8	3	4	2	3	25	21	19	10	
	7	16	3	4	1	3	23	21	18	10	
	8	17	3	4	1	3	22	20	14	5	
	9	27	3	4	1	3	21	19	14	5	
92	1	1	3	4	2	3	15	13	22	5	
	2	2	2	4	2	3	14	13	21	4	
	3	8	2	4	2	3	13	13	20	4	
	4	13	2	4	2	2	12	12	19	4	
	5	14	2	4	1	2	11	12	19	4	
	6	21	2	4	1	2	11	11	19	4	
	7	24	2	4	1	1	10	10	18	4	
	8	26	2	4	1	1	9	10	18	4	
	9	27	2	4	1	1	8	10	17	4	
93	1	2	3	3	4	2	23	24	19	17	
	2	4	3	2	3	2	22	23	18	15	
	3	6	3	2	3	2	20	21	18	14	
	4	12	3	2	3	2	18	20	18	13	
	5	13	3	2	2	1	16	20	18	12	
	6	15	3	1	2	1	14	20	17	12	
	7	21	3	1	1	1	12	19	17	11	
	8	25	3	1	1	1	8	17	17	10	
	9	27	3	1	1	1	8	17	17	9	
94	1	2	5	3	4	5	19	29	28	26	
	2	9	5	3	4	5	16	28	27	26	
	3	10	5	3	4	5	14	26	25	26	
	4	14	5	3	4	5	13	26	25	26	
	5	15	5	3	3	5	10	25	24	26	
	6	16	5	3	3	5	10	25	23	26	
	7	21	5	3	3	5	7	23	22	26	
	8	23	5	3	2	5	5	23	21	26	
	9	24	5	3	2	5	4	22	19	26	
95	1	3	5	1	3	2	24	18	24	11	
	2	5	4	1	2	1	24	16	23	11	
	3	11	4	1	2	1	23	16	22	11	
	4	14	3	1	2	1	23	15	22	11	
	5	16	3	1	2	1	22	13	21	11	
	6	21	3	1	2	1	22	13	21	10	
	7	22	3	1	2	1	21	12	20	11	
	8	23	2	1	2	1	20	10	18	11	
	9	24	2	1	2	1	20	10	18	10	
96	1	4	5	4	2	3	20	11	10	21	
	2	9	4	4	2	3	18	9	9	18	
	3	13	4	4	2	3	18	9	8	17	
	4	19	3	3	2	2	17	9	7	13	
	5	20	3	2	2	2	17	8	7	11	
	6	21	3	2	2	2	16	8	7	11	
	7	22	3	2	2	2	16	7	5	9	
	8	25	2	1	2	1	16	6	4	6	
	9	29	2	1	2	1	15	6	4	4	
97	1	2	4	5	4	4	26	23	14	17	
	2	3	4	4	4	4	25	23	14	17	
	3	5	4	3	3	4	24	18	12	17	
	4	11	3	3	3	4	24	14	12	17	
	5	13	2	2	3	4	22	13	11	17	
	6	17	2	2	2	4	22	10	10	17	
	7	24	2	1	1	4	20	7	8	17	
	8	25	1	1	1	4	19	3	7	17	
	9	29	1	1	1	4	19	1	7	17	
98	1	2	3	5	5	4	18	24	23	25	
	2	5	2	4	4	3	18	22	23	24	
	3	7	2	4	4	3	18	21	21	23	
	4	10	2	4	3	3	18	20	17	22	
	5	15	2	3	3	3	17	20	17	21	
	6	21	2	3	2	3	17	18	12	21	
	7	27	2	3	2	3	17	17	10	20	
	8	29	2	3	1	3	17	16	9	19	
	9	30	2	3	1	3	17	15	8	19	
99	1	2	5	5	2	2	3	27	17	25	
	2	4	4	4	2	2	2	26	17	21	
	3	7	4	4	2	2	2	26	16	19	
	4	16	4	3	2	2	2	24	16	18	
	5	17	4	3	2	2	2	23	16	16	
	6	21	3	3	2	1	1	22	15	15	
	7	24	3	2	2	1	1	20	14	13	
	8	26	3	2	2	1	1	20	14	11	
	9	29	3	2	2	1	1	19	14	8	
100	1	2	4	4	4	3	21	29	11	22	
	2	7	4	3	3	3	19	23	10	21	
	3	10	4	3	3	3	19	22	10	21	
	4	12	4	3	3	3	18	18	9	21	
	5	15	3	2	3	3	18	17	9	21	
	6	16	3	2	2	3	18	15	8	20	
	7	18	2	2	2	3	17	11	7	20	
	8	19	2	1	2	3	17	11	7	20	
	9	23	2	1	2	3	16	7	7	20	
101	1	4	5	5	5	1	24	21	24	17	
	2	9	4	5	4	1	21	21	23	16	
	3	11	4	5	3	1	21	17	23	14	
	4	12	3	5	3	1	18	17	22	12	
	5	20	2	5	2	1	18	14	20	10	
	6	26	2	5	2	1	17	13	19	7	
	7	27	2	5	1	1	14	11	18	4	
	8	28	1	5	1	1	14	7	16	2	
	9	30	1	5	1	1	12	7	15	1	
102	1	0	0	0	0	0	0	0	0	0	
************************************************************************

 RESOURCE AVAILABILITIES 
	R 1	R 2	R 3	R 4	N 1	N 2	N 3	N 4
	22	19	21	20	1556	1548	1568	1539

************************************************************************
